data/processed_heuristic-threshold/instances/1/8/ds_714_courier_1656/pairwise.tsp
NAME: ds_714_courier_1656
TYPE: TSP
COMMENT: nil
DIMENSION: 9
EDGE_WEIGHT_TYPE: EXPLICIT
EDGE_WEIGHT_FORMAT: FULL_MATRIX
EDGE_WEIGHT_SECTION
9999 3949 2834 2628 3945 2819 5968 1338 2895 
3949 9999 2466 1430 166 1144 2287 2631 1835 
2834 2466 9999 2235 2582 1715 4734 1810 637 
2628 1430 2235 9999 1380 637 3346 1414 1699 
3945 166 2582 1380 9999 1170 2203 2640 1947 
2819 1144 1715 637 1170 9999 3344 1491 1123 
5968 2287 4734 3346 2203 3344 9999 4740 4112 
1338 2631 1810 1414 2640 1491 4740 9999 1671 
2895 1835 637 1699 1947 1123 4112 1671 9999 
