data/processed_heuristic-threshold/instances/1/8/ds_714_courier_1656/pairwise.sol
9
0 7 3 6 4 1 5 8 2 
